nNurses = 107;
nHours = 35;
minHours = 9;
maxHours = 10;
maxConsec = 8;
maxPresence = 20;
demand = [10, 12, 13, 18, 13, 13, 17, 22, 18, 23, 21, 25, 23, 27, 27, 23, 28, 25, 26, 24, 25, 25, 28, 27, 31, 30, 28, 30, 31, 31, 29, 30, 25, 29, 24];
